As In
 1.0000000000000000
    47.0374984740999977    0.0000000000000000    0.0000000000000000
     0.0000000000000000   47.0374984740999977    0.0000000000000000
     0.0000000000000000    0.0000000000000000   21.1028614043999987
 As  In 
  68  68
Cartesian
 16.7695798831462852 24.9543467404512782  5.7083820052675769
 18.9008989668066967 18.3915948913820557 16.2598123510435997
 19.1797972240760402 21.0136539110607714  5.7680699992601241
 23.5187500736935320 18.5085596097420009 16.3194999981768518
 21.3874290766078836 16.9559965719729426  5.7083818721830299
 28.1365995768980923 18.3915949490305231 16.2598123118509186
 16.8491848221909706 22.4665631914820132  2.1720078106039287
 21.0951873558324152 17.2166432384814918 12.7234390093921768
 19.2727461977794157 18.2688302262917333  2.1720075046411589
 25.9423112886338600 17.2166433162455377 12.7234386136821680
 21.3526160975769699 27.2542946228534184  9.4894976341882256
 19.2006043943852447 23.5105961913944377 20.0409286538871854
 23.5187492042768724 23.5187487676620393  9.3572421781513011
 23.5187490178649377 23.5187483716159917 19.9086734047113474
 25.6707601285757221 19.7750501239236804  9.4894976618618418
 27.8368939642204367 23.5105962733377538 20.0409288149437117
 18.8949708401720322 26.1882903673002687  2.1978370299045458
 18.8949706921388518 20.8492082869046875 12.7492679067658194
 21.3597859533096894 22.2722710126458949  2.3226905796034192
 23.5187487748462587 21.0257941704549154 12.8741212497912070
 23.5187498831640482 18.1796679879568579  2.1978377250299088
 28.1425275653279670 20.8492088920234835 12.7492680014769473
 17.0211574840467676 27.2701349480944764  9.4217879326693375
 17.0211573113073982 19.7673636261383230 19.9732179635958751
 19.2006046024071608 23.5269022063857420  9.4894976863035918
 21.3526162319813793 19.7832039984333434 20.0409285234308996
 21.3667383981098560 19.7750500807684517  9.4894976777444953
 25.6848821796531617 19.7832026947159392 20.0409286953270929
 23.5187489320356384 16.0159769817740774  9.4217876121184005
 30.0163409185957306 19.7673635793875100 19.9732179143712436
 18.9008991571840781 28.6459035835334603  5.7083813392809786
 16.7695797779524653 22.0831517129390882 16.2598125059915404
 21.2523488864350156 24.8272560711524335  5.8255098048549137
 21.2523490233845180 22.2102441344546335 16.3769407334984933
 23.5187490641016126 20.9017362087248983  5.8255098019881402
 25.7851495517265441 22.2102439668422065 16.3769407790854089
 25.6500706795297937 16.9559965904265795  5.7083818882635882
 30.2679186354584182 22.0831516797237093 16.2598122599057007
 25.9423110625848317 29.8208550119807541  2.1720076051487771
 19.2727461537903295 28.7686691063833955 12.7234387184930444
 28.1425276260209145 26.1882892997889130  2.1978373222761634
 23.5187487919702818 28.8578293846414411 12.7492680495616408
 30.1883136281639963 22.4665631029152024  2.1720077113307168
 27.7647523235014617 28.7686681605422692 12.7234387683087142
 23.5187498193403357 28.5289391354295283  5.7680699040712691
 19.1797971985774822 26.0238446581285388 16.3195008872405296
 25.7851495054483237 24.8272561000134431  5.8255098157614214
 23.5187498947571356 26.1357622736702560 16.3769407033296162
 27.8577012429833175 21.0136538870379752  5.7680697872131343
 27.8577012862460194 26.0238446138807298 16.3195008217905126
 21.0951874641092516 29.8208550566190453  2.1720074758136052
 16.8491834056356851 24.5709350644405298 12.7234378156272960
 23.5187496666467659 26.0117043336068399  2.3226908488804696
 21.3597860457204156 24.7652274063232483 12.8741211783468508
 25.6777125107407329 22.2722710284256209  2.3226905557344448
 25.6777125008595490 24.7652273384178869 12.8741212251991772
 27.7647523124888203 18.2688302290731492  2.1720078533264173
 30.1883152364673286 24.5709351681409771 12.7234379106388946
 25.6848822831204124 27.2542945857689389  9.4894976050842761
 21.3667384189077900 27.2624484893777179 20.0409286345589130
 27.8368938784915017 23.5269022131095156  9.4894976428667572
 25.6707601533051353 27.2624490234788119 20.0409285623775801
 30.0163408013967796 27.2701349182143566  9.4217877201911691
 23.5187485308969393 31.0215215015306427 19.9732180212996013
 28.1365993210705128 28.6459034751079891  5.7083813956024718
 21.3874286282276671 30.0815013867812233 16.2598119747861602
 30.2679186427349549 24.9543466429325562  5.7083816672833052
 25.6500693850826700 30.0815018942653047 16.2598122326960670
 17.5383063082709612 22.7398039629468514  4.6452902075437024
 21.2031144646673759 17.9500608312447021 15.1967215808993323
 19.8539400344253707 18.7290066275567746  4.6452901124131252
 25.8343839253479999 17.9500608623822444 15.1967214746443169
 17.5120307171895853 25.0349148206100693  8.1707215404220932
 19.2023516619033430 19.0748615580822189 18.7221516270731740
 19.7402946710058842 21.3372567135095075  8.2626671426016340
 23.5187484174191361 19.1557665521127163 18.8140974101013789
 21.8284273809875451 17.5586959161867036  8.1707213568013053
 27.8351468689799866 19.0748614965417289 18.7221516361954272
 17.8849020276316644 20.2660474529985848  1.3138337382336740
 17.8849020124731055 26.7714510449887264 11.8652647097955803
 21.4738969653342124 19.6916513913134210  1.6545522247087594
 19.1819599848408551 23.3760957350567331 12.2059829217342131
 25.5636018462894015 19.6916514555820257  1.6545522098879550
 21.2268132670511420 19.8343058739409308 12.2059836758009030
 29.1525964238617945 20.2660473257280955  1.3138329738171062
 23.5187498107679076 17.0133428148931962 11.8652643698064235
 19.2023515817748489 27.9626359965193281  8.1707206354520459
 17.5120306674348427 22.0025834674817666 18.7221517715280577
 21.3581457504159289 24.7661734905165218  8.4781679231198819
 21.3581458873208341 22.2713249753465128 19.0295990850682557
 23.5187498934851575 21.0238999742676356  8.4781679368424587
 25.6793527456612409 22.2713250793960711 19.0295991987724520
 25.2090710583381394 17.5586958632084666  8.1707211386646463
 29.5254677175022380 22.0025835433966748 18.7221518435594518
 19.0378867750820504 26.1057766892046708  4.8364604076227975
 19.0378866675452727 20.9317218957085416 15.3878911967949019
 21.4466201266894458 22.3224056834560045  4.9730422710602902
 23.5187494387236313 21.1260624752352015 15.5244727830010927
 23.5187486963642343 18.3446950989070352  4.8364607884080186
 27.9996117964987192 20.9317218170886257 15.3878913393497001
 19.1819599203658200 23.6614030923032708  1.6545524242873106
 21.4738951390456876 27.3458469994258877 12.2059826918340502
 23.5187489024428196 23.5187481260476758  1.4764595815830348
 23.5187488756724434 23.5187502183147927 12.0278896052549058
 27.8555386039124997 23.6614027430871801  1.6545521444653510
 25.8106851674498579 19.8343057800818130 12.2059836574664118
 21.2031145727399206 29.0874377065777985  4.6452905187892108
 17.5383062190266266 24.2976956715522689 15.1967204879587250
 23.5187490313026011 25.9114367876338321  4.9730417943632981
 21.4466202440031957 24.7150928371130050 15.5244726109877078
 25.5908782394195704 22.3224056795166881  4.9730422601892190
 25.5908781729443504 24.7150926763871830 15.5244727198395651
 27.1835584283663572 18.7290066476376111  4.6452905549007522
 29.4991922823221273 24.2976953975207195 15.1967206272018824
 21.2268133598207207 27.2031927137487237  1.6545519693179529
 25.5636032252386265 27.3458469086732521 12.2059834849346309
 25.8106852344220208 27.2031924024010578  1.6545521354606785
 27.8555384180014514 23.3760956524078303 12.2059827516565136
 23.5187492772743028 27.8817319787961750  8.2626669753264377
 19.7402945676690180 25.7002418254661933 18.8140974793280336
 25.6793526530688574 24.7661734338783255  8.4781679679040138
 23.5187488615248128 26.0135985164527348 19.0295989577693732
 27.2972038753957378 21.3372569423148875  8.2626668362576297
 27.2972039525396433 25.7002406312066114 18.8140974727031605
 25.8343839838371849 29.0874376531747671  4.6452904578901180
 19.8539401602277614 28.3084919136542510 15.1967211144015195
 27.9996117866201999 26.1057767715777302  4.8364604049247362
 23.5187484057016079 28.6928034143697062 15.3878911276493806
 29.4991922090850913 22.7398029915593796  4.6452901109097073
 27.1835584182826153 28.3084916927335968 15.1967215417144779
 27.8351468277978249 27.9626369505603023  8.1707205920233257
 21.8284274339652917 29.4788024009873304 18.7221517852645505
 29.5254678033475741 25.0349148486497768  8.1707213591708925
 25.2090711661004505 29.4788025977258350 18.7221516720683923
 23.5187497948533952 30.0241554946577693  1.3138331458151797
 29.1525964089849801 26.7714514534702772 11.8652645151554879
