 C 
 1.0000000000000000
    25.0000000000000000    0.0000000000000000    0.0000000000000000
     0.0000000000000000   25.0000000000000000    0.0000000000000000
     0.0000000000000000    0.0000000000000000    6.5072574868372923
 C  
  56
Cartesian
 16.0876390824431930 12.5000000000000000  0.0000000000000000
 15.8396390414563459 13.8107117374367085  6.0424533806346288
 15.9976894803082530 13.2983247993234350  2.3240205310133186
 15.4642465181660214 14.5209890562332191  1.8592164248106553
 15.7323511225513162 14.0566182596947371  4.6480410620266372
 14.9402142968393346 15.1299255448348209  4.1832369558239737
 15.3049291823868039 14.7368563806531547  0.4648041062026643
 14.2938195412215983 15.6069865850056964  0.0000000000000007
 14.7368563806531547 15.3049291823868039  2.7888246372159826
 13.5574751834689202 15.9282503441582577  2.3240205310133191
 14.0566182596947371 15.7323511225513162  5.1128451682293008
 12.7681046043852948 16.0776073159279562  4.6480410620266372
 13.2983247993234350 15.9976894803082530  0.9296082124053286
 11.9652901409304562 16.0475681180898633  0.4648041062026650
 12.5000000000000000 16.0876390824431930  3.2536287434186471
 11.1892882625632915 15.8396390414563459  2.7888246372159835
 11.7016752006765667 15.9976894803082530  5.5776492744319652
 10.4790109437667809 15.4642465181660214  5.1128451682293017
 10.9433817403052629 15.7323511225513162  1.3944123186079929
  9.8700744551651791 14.9402142968393346  0.9296082124053294
 10.2631436193468453 15.3049291823868039  3.7184328496213110
  9.3930134149943036 14.2938195412215947  3.2536287434186475
  9.6950708176131961 14.7368563806531547  6.0424533806346306
  9.0717496558417423 13.5574751834689202  5.5776492744319670
  9.2676488774486838 14.0566182596947371  1.8592164248106573
  8.9223926840720438 12.7681046043852948  1.3944123186079938
  9.0023105196917470 13.2983247993234350  4.1832369558239755
  8.9524318819101367 11.9652901409304562  3.7184328496213119
  8.9123609175568088 12.5000000000000000  0.0000000000000000
  9.1603609585436541 11.1892882625632915  6.0424533806346350
  9.0023105196917470 11.7016752006765667  2.3240205310133182
  9.5357534818339786 10.4790109437667809  1.8592164248106549
  9.2676488774486838 10.9433817403052629  4.6480410620266364
 10.0597857031606654  9.8700744551651791  4.1832369558239728
  9.6950708176131961 10.2631436193468453  0.4648041062026677
 10.7061804587784017  9.3930134149943036  0.0000000000000041
 10.2631436193468453  9.6950708176131961  2.7888246372159857
 11.4425248165310798  9.0717496558417423  2.3240205310133222
 10.9433817403052629  9.2676488774486838  5.1128451682293043
 12.2318953956147052  8.9223926840720438  4.6480410620266408
 11.7016752006765650  9.0023105196917470  0.9296082124053286
 13.0347098590695438  8.9524318819101367  0.4648041062026650
 12.5000000000000000  8.9123609175568088  3.2536287434186471
 13.8107117374367068  9.1603609585436505  2.7888246372159835
 13.2983247993234333  9.0023105196917470  5.5776492744319652
 14.5209890562332156  9.5357534818339751  5.1128451682293017
 14.0566182596947371  9.2676488774486838  1.3944123186079898
 15.1299255448348209 10.0597857031606654  0.9296082124053260
 14.7368563806531512  9.6950708176131961  3.7184328496213146
 15.6069865850056964 10.7061804587784017  3.2536287434186510
 15.3049291823868003 10.2631436193468453  6.0424533806346341
 15.9282503441582577 11.4425248165310798  5.5776492744319706
 15.7323511225513162 10.9433817403052611  1.8592164248106573
 16.0776073159279562 12.2318953956147052  1.3944123186079938
 15.9976894803082530 11.7016752006765650  4.1832369558239693
 16.0475681180898633 13.0347098590695438  3.7184328496213062
