 S  W                                   
   1.00000000000000     
    23.7318511415899742    0.0000000000000000    0.0000000000000000
     0.0000000000000000   23.7318511415899742    0.0000000000000000
     0.0000000000000000    0.0000000000000000    5.5464879839433516
   S    W 
    40    20
Direct
  0.5000000000000000  0.6724470829995226  0.8529596223437673
  0.7811056135702164  0.5913348591086616  0.8157519567596218
  0.7811056135702164  0.4086651408913384  0.8157519567596218
  0.5000000000000000  0.7955833966315551  0.8158023798645322
  0.2044166033684447  0.5000000000000000  0.3158023798645253
  0.2188943864297837  0.5913348591086616  0.8157519567596218
  0.2188943864297837  0.4086651408913384  0.8157519567596218
  0.2608579765681460  0.6737200127993002  0.3157668701876563
  0.2608579765681460  0.3262799872007002  0.3157668701876563
  0.3262799872007002  0.7391420234318539  0.8157668701876633
  0.3262799872007002  0.2608579765681460  0.8157668701876633
  0.3275529170004776  0.5000000000000000  0.3529596223437672
  0.3359822137167895  0.5532969501152680  0.8529601845840220
  0.3359822137167895  0.4467030498847324  0.8529601845840220
  0.3604630422545441  0.6013766676984744  0.3529643269125395
  0.3604630422545441  0.3986233323015255  0.3529643269125395
  0.4086651408913384  0.7811056135702164  0.3157519567596151
  0.4086651408913384  0.2188943864297837  0.3157519567596151
  0.3986233323015255  0.6395369577454557  0.8529643269125395
  0.3986233323015255  0.3604630422545441  0.8529643269125395
  0.4467030498847324  0.6640177862832106  0.3529601845840222
  0.4467030498847324  0.3359822137167895  0.3529601845840222
  0.7391420234318539  0.3262799872007002  0.3157668701876563
  0.7391420234318539  0.6737200127993002  0.3157668701876563
  0.7955833966315551  0.5000000000000000  0.3158023798645253
  0.6395369577454557  0.6013766676984744  0.3529643269125395
  0.5000000000000000  0.2044166033684447  0.8158023798645322
  0.5532969501152680  0.6640177862832106  0.3529601845840222
  0.5532969501152680  0.3359822137167895  0.3529601845840222
  0.6013766676984744  0.6395369577454557  0.8529643269125395
  0.6013766676984744  0.3604630422545441  0.8529643269125395
  0.5913348591086616  0.7811056135702164  0.3157519567596151
  0.5913348591086616  0.2188943864297837  0.3157519567596151
  0.6395369577454557  0.3986233323015255  0.3529643269125395
  0.5000000000000000  0.3275529170004776  0.8529596223437673
  0.6737200127993002  0.7391420234318539  0.8157668701876633
  0.6640177862832106  0.5532969501152680  0.8529601845840220
  0.6640177862832106  0.4467030498847324  0.8529601845840220
  0.6724470829995226  0.5000000000000000  0.3529596223437672
  0.6737200127993002  0.2608579765681460  0.8157668701876633
  0.5000000000000000  0.7368072244972257  0.1712911730118511
  0.7252290279512854  0.5731657386950894  0.1713106486814127
  0.5000000000000000  0.2631927755027743  0.1712911730118511
  0.4268342613049106  0.2747709720487218  0.6713106486814123
  0.4268342613049106  0.7252290279512854  0.6713106486814123
  0.6915939208593005  0.3607964087168931  0.6713167845146862
  0.6915939208593005  0.6392035912831072  0.6713167845146862
  0.5731657386950894  0.7252290279512854  0.6713106486814123
  0.5731657386950894  0.2747709720487218  0.6713106486814123
  0.2631927755027743  0.5000000000000000  0.6712911730118511
  0.3607964087168931  0.3084060791406990  0.1713167845146865
  0.3607964087168931  0.6915939208593005  0.1713167845146865
  0.7368072244972257  0.5000000000000000  0.6712911730118511
  0.6392035912831072  0.6915939208593005  0.1713167845146865
  0.3084060791406990  0.3607964087168931  0.6713167845146862
  0.3084060791406990  0.6392035912831072  0.6713167845146862
  0.2747709720487218  0.4268342613049106  0.1713106486814127
  0.2747709720487218  0.5731657386950894  0.1713106486814127
  0.6392035912831072  0.3084060791406990  0.1713167845146865
  0.7252290279512854  0.4268342613049106  0.1713106486814127
 
  0.00000000E+00  0.00000000E+00  0.00000000E+00
  0.00000000E+00  0.00000000E+00  0.00000000E+00
  0.00000000E+00  0.00000000E+00  0.00000000E+00
  0.00000000E+00  0.00000000E+00  0.00000000E+00
  0.00000000E+00  0.00000000E+00  0.00000000E+00
  0.00000000E+00  0.00000000E+00  0.00000000E+00
  0.00000000E+00  0.00000000E+00  0.00000000E+00
  0.00000000E+00  0.00000000E+00  0.00000000E+00
  0.00000000E+00  0.00000000E+00  0.00000000E+00
  0.00000000E+00  0.00000000E+00  0.00000000E+00
  0.00000000E+00  0.00000000E+00  0.00000000E+00
  0.00000000E+00  0.00000000E+00  0.00000000E+00
  0.00000000E+00  0.00000000E+00  0.00000000E+00
  0.00000000E+00  0.00000000E+00  0.00000000E+00
  0.00000000E+00  0.00000000E+00  0.00000000E+00
  0.00000000E+00  0.00000000E+00  0.00000000E+00
  0.00000000E+00  0.00000000E+00  0.00000000E+00
  0.00000000E+00  0.00000000E+00  0.00000000E+00
  0.00000000E+00  0.00000000E+00  0.00000000E+00
  0.00000000E+00  0.00000000E+00  0.00000000E+00
  0.00000000E+00  0.00000000E+00  0.00000000E+00
  0.00000000E+00  0.00000000E+00  0.00000000E+00
  0.00000000E+00  0.00000000E+00  0.00000000E+00
  0.00000000E+00  0.00000000E+00  0.00000000E+00
  0.00000000E+00  0.00000000E+00  0.00000000E+00
  0.00000000E+00  0.00000000E+00  0.00000000E+00
  0.00000000E+00  0.00000000E+00  0.00000000E+00
  0.00000000E+00  0.00000000E+00  0.00000000E+00
  0.00000000E+00  0.00000000E+00  0.00000000E+00
  0.00000000E+00  0.00000000E+00  0.00000000E+00
  0.00000000E+00  0.00000000E+00  0.00000000E+00
  0.00000000E+00  0.00000000E+00  0.00000000E+00
  0.00000000E+00  0.00000000E+00  0.00000000E+00
  0.00000000E+00  0.00000000E+00  0.00000000E+00
  0.00000000E+00  0.00000000E+00  0.00000000E+00
  0.00000000E+00  0.00000000E+00  0.00000000E+00
  0.00000000E+00  0.00000000E+00  0.00000000E+00
  0.00000000E+00  0.00000000E+00  0.00000000E+00
  0.00000000E+00  0.00000000E+00  0.00000000E+00
  0.00000000E+00  0.00000000E+00  0.00000000E+00
  0.00000000E+00  0.00000000E+00  0.00000000E+00
  0.00000000E+00  0.00000000E+00  0.00000000E+00
  0.00000000E+00  0.00000000E+00  0.00000000E+00
  0.00000000E+00  0.00000000E+00  0.00000000E+00
  0.00000000E+00  0.00000000E+00  0.00000000E+00
  0.00000000E+00  0.00000000E+00  0.00000000E+00
  0.00000000E+00  0.00000000E+00  0.00000000E+00
  0.00000000E+00  0.00000000E+00  0.00000000E+00
  0.00000000E+00  0.00000000E+00  0.00000000E+00
  0.00000000E+00  0.00000000E+00  0.00000000E+00
  0.00000000E+00  0.00000000E+00  0.00000000E+00
  0.00000000E+00  0.00000000E+00  0.00000000E+00
  0.00000000E+00  0.00000000E+00  0.00000000E+00
  0.00000000E+00  0.00000000E+00  0.00000000E+00
  0.00000000E+00  0.00000000E+00  0.00000000E+00
  0.00000000E+00  0.00000000E+00  0.00000000E+00
  0.00000000E+00  0.00000000E+00  0.00000000E+00
  0.00000000E+00  0.00000000E+00  0.00000000E+00
  0.00000000E+00  0.00000000E+00  0.00000000E+00
  0.00000000E+00  0.00000000E+00  0.00000000E+00
