 C 
 1.0000000000000000
    27.0000000000000000    0.0000000000000000    0.0000000000000000
     0.0000000000000000   27.0000000000000000    0.0000000000000000
     0.0000000000000000    0.0000000000000000    2.4595121467478056
 C  
  36
Cartesian
 15.5340001727144212 13.5000000000000000  0.0000000000000000
 15.0581345296109248 14.8074301091211105  0.0000000000000000
 14.5170000863572124 15.2614958208726268  1.2297560733739026
 13.1467995766339190 15.5030991397173317  1.2297560733739026
 12.4829999136427912 15.2614958208726268  2.4595121467478052
 11.5886650470229942 14.1956690305962212  2.4595121467478052
 11.4659998272855788 13.5000000000000000  1.2297560733739024
 11.9418654703890752 12.1925698908788895  1.2297560733739024
 12.4829999136427876 11.7385041791273768  2.4595121467478047
 13.8532004233660810 11.4969008602826683  2.4595121467478047
 14.5170000863572088 11.7385041791273732  1.2297560733739015
 15.4113349529770058 12.8043309694037788  1.2297560733739015
 17.5680003454288425 13.5000000000000000  0.0000000000000000
 17.3226699059540117 14.8913380611924442  0.0000000000000000
 17.0229916417452500 15.5340001727144212  1.2297560733739026
 16.1148602182422245 16.6162690592218496  1.2297560733739026
 15.5340001727144248 17.0229916417452500  2.4595121467478052
 14.2064008467321621 17.5061982794346669  2.4595121467478052
 13.5000000000000000 17.5680003454288425  1.2297560733739024
 12.1086619388075558 17.3226699059540117  1.2297560733739024
 11.4659998272855788 17.0229916417452500  2.4595121467478047
 10.3837309407781522 16.1148602182422245  2.4595121467478047
  9.9770083582547482 15.5340001727144248  1.2297560733739015
  9.4938017205653331 14.2064008467321621  1.2297560733739015
  9.4319996545711575 13.5000000000000000  2.4595121467478047
  9.6773300940459901 12.1086619388075558  2.4595121467478047
  9.9770083582547482 11.4659998272855788  1.2297560733739015
 10.8851397817577773 10.3837309407781522  1.2297560733739015
 11.4659998272855752  9.9770083582547482  2.4595121467478038
 12.7935991532678344  9.4938017205653331  2.4595121467478038
 13.5000000000000000  9.4319996545711575  1.2297560733739006
 14.8913380611924406  9.6773300940459865  1.2297560733739006
 15.5340001727144177  9.9770083582547464  2.4595121467478029
 16.6162690592218496 10.8851397817577737  2.4595121467478029
 17.0229916417452500 11.4659998272855752  1.2297560733739006
 17.5061982794346669 12.7935991532678344  1.2297560733739006
