 C 
 1.0000000000000000
    17.0000000000000000    0.0000000000000000    0.0000000000000000
     0.0000000000000000   17.0000000000000000    0.0000000000000000
     0.0000000000000000    0.0000000000000000    6.5072574868372923
 C  
  28
Cartesian
 10.2938195412215947  8.5000000000000000  0.0000000000000000
  9.8149627724174096  9.7201071484196664  6.0424533806346288
 10.1161755612756572  9.2783091298473703  2.3240205310133186
  9.1553558687183560 10.1698195207281721  1.8592164248106553
  9.6184281903265774  9.9024645911934019  4.6480410620266372
  8.3659476978073535 10.2888036579639781  4.1832369558239737
  8.8991623996617175 10.2488447401541265  0.4648041062026643
  7.6030902293892035 10.0534932925028482  0.0000000000000007
  8.1008376003382825 10.2488447401541265  2.7888246372159826
  7.0178767409169893  9.5104945281166096  2.3240205310133191
  7.3815718096734226  9.9024645911934019  5.1128451682293008
  6.7262159409550693  8.7673549295347719  4.6480410620266372
  6.8838244387243428  9.2783091298473703  0.9296082124053286
  6.7858748279208729  7.9712624082655417  0.4648041062026650
  6.7061804587784044  8.5000000000000000  3.2536287434186471
  7.1850372275825878  7.2798928515803336  2.7888246372159835
  6.8838244387243410  7.7216908701526323  5.5776492744319652
  7.8446441312816466  6.8301804792718270  5.1128451682293017
  7.3815718096734226  7.0975354088065998  1.3944123186079929
  8.6340523021926465  6.7111963420360219  0.9296082124053294
  8.1008376003382825  6.7511552598458735  3.7184328496213110
  9.3969097706107974  6.9465067074971518  3.2536287434186475
  8.8991623996617157  6.7511552598458735  6.0424533806346306
  9.9821232590830125  7.4895054718833913  5.5776492744319670
  9.6184281903265774  7.0975354088065981  1.8592164248106573
 10.2737840590449316  8.2326450704652281  1.3944123186079938
 10.1161755612756572  7.7216908701526297  4.1832369558239755
 10.2141251720791271  9.0287375917344583  3.7184328496213119
