 C                                      
   1.00000000000000     
    27.0000000000000000    0.0000000000000000    0.0000000000000000
     0.0000000000000000   27.0000000000000000    0.0000000000000000
     0.0000000000000000    0.0000000000000000    4.2599999999999998
   C 
    60
Direct
  0.5708733034470875  0.5000000000000000  0.0034623265461565
  0.5578849064313319  0.5420563436014224  0.8305791771644826
  0.5578849064313319  0.5420563436014224  0.5027541561688531
  0.5219015816405846  0.5674063463321201  0.3298708132915410
  0.5219015816405846  0.5674063463321201  0.0034625200417947
  0.4778899067691149  0.5680483027490012  0.8305799667479346
  0.4778899067691149  0.5680483027490012  0.5027533665854013
  0.4426619966017781  0.5416586742576162  0.3298709151537962
  0.4426619966017781  0.5416586742576162  0.0034624181795395
  0.4284501952700203  0.5000000000000000  0.8305789335230491
  0.4284501952700203  0.5000000000000000  0.5027543998102867
  0.4426619966017781  0.4583413257423838  0.3298709151537962
  0.4426619966017781  0.4583413257423838  0.0034624181795395
  0.4778899067691149  0.4319516972509988  0.8305799667479346
  0.4778899067691149  0.4319516972509988  0.5027533665854013
  0.5219015816405846  0.4325936536678801  0.3298708132915410
  0.5219015816405846  0.4325936536678801  0.0034625200417947
  0.5578849064313319  0.4579436563985776  0.8305791771644826
  0.5578849064313319  0.4579436563985776  0.5027541561688531
  0.5708733034470875  0.5000000000000000  0.3298710067871792
  0.6580684495392983  0.5000000000000000 -0.0004819215608810
  0.6507477460325231  0.5486326326772825  0.8319042079087107
  0.6507477460325231  0.5486326326772825  0.5014291254246250
  0.6267780651769318  0.5921093615835639  0.3324671488419225
  0.6267780651769318  0.5921093615835639  0.0008661844914131
  0.5928366784582297  0.6283414749582340  0.8319046910480806
  0.5928366784582297  0.6283414749582340  0.5014286422852551
  0.5488457288688210  0.6503324264589254  0.3338167527839083
  0.5488457288688210  0.6503324264589254 -0.0004834194505727
  0.5003311099900483  0.6583982898680624  0.8319037310736187
  0.5003311099900483  0.6583982898680624  0.5014296022597170
  0.4515752724130651  0.6490361827316538  0.3324667806525782
  0.4515752724130651  0.6490361827316538  0.0008665526807576
  0.4066278677559831  0.6279525012730884  0.8319050846011501
  0.4066278677559831  0.6279525012730884  0.5014282487321856
  0.3721196709688435  0.5929108415834267  0.3338170667100628
  0.3721196709688435  0.5929108415834267 -0.0004837333767272
  0.3494564968739675  0.5492625597537837  0.8319038088906082
  0.3494564968739675  0.5492625597537837  0.5014295244427275
  0.3432939957811477  0.5000000000000000  0.3324666843336544
  0.3432939957811477  0.5000000000000000  0.0008666489996811
  0.3494564968739675  0.4507374402462165  0.8319038088906082
  0.3494564968739675  0.4507374402462165  0.5014295244427275
  0.3721196709688435  0.4070891584165732  0.3338170667100628
  0.3721196709688435  0.4070891584165732 -0.0004837333767272
  0.4066278677559831  0.3720474987269114  0.8319050846011501
  0.4066278677559831  0.3720474987269114  0.5014282487321856
  0.4515752724130651  0.3509638172683462  0.3324667806525782
  0.4515752724130651  0.3509638172683462  0.0008665526807576
  0.5003311099900483  0.3416017101319375  0.8319037310736187
  0.5003311099900483  0.3416017101319375  0.5014296022597170
  0.5488457288688210  0.3496675735410741  0.3338167527839083
  0.5488457288688210  0.3496675735410741 -0.0004834194505727
  0.5928366784582297  0.3716585250417662  0.8319046910480806
  0.5928366784582297  0.3716585250417662  0.5014286422852551
  0.6267780651769318  0.4078906384164355  0.3324671488419225
  0.6267780651769318  0.4078906384164355  0.0008661844914131
  0.6507477460325231  0.4513673673227174  0.8319042079087107
  0.6507477460325231  0.4513673673227174  0.5014291254246250
  0.6580684495392983  0.5000000000000000  0.3338152548942168
 
  0.00000000E+00  0.00000000E+00  0.00000000E+00
  0.00000000E+00  0.00000000E+00  0.00000000E+00
  0.00000000E+00  0.00000000E+00  0.00000000E+00
  0.00000000E+00  0.00000000E+00  0.00000000E+00
  0.00000000E+00  0.00000000E+00  0.00000000E+00
  0.00000000E+00  0.00000000E+00  0.00000000E+00
  0.00000000E+00  0.00000000E+00  0.00000000E+00
  0.00000000E+00  0.00000000E+00  0.00000000E+00
  0.00000000E+00  0.00000000E+00  0.00000000E+00
  0.00000000E+00  0.00000000E+00  0.00000000E+00
  0.00000000E+00  0.00000000E+00  0.00000000E+00
  0.00000000E+00  0.00000000E+00  0.00000000E+00
  0.00000000E+00  0.00000000E+00  0.00000000E+00
  0.00000000E+00  0.00000000E+00  0.00000000E+00
  0.00000000E+00  0.00000000E+00  0.00000000E+00
  0.00000000E+00  0.00000000E+00  0.00000000E+00
  0.00000000E+00  0.00000000E+00  0.00000000E+00
  0.00000000E+00  0.00000000E+00  0.00000000E+00
  0.00000000E+00  0.00000000E+00  0.00000000E+00
  0.00000000E+00  0.00000000E+00  0.00000000E+00
  0.00000000E+00  0.00000000E+00  0.00000000E+00
  0.00000000E+00  0.00000000E+00  0.00000000E+00
  0.00000000E+00  0.00000000E+00  0.00000000E+00
  0.00000000E+00  0.00000000E+00  0.00000000E+00
  0.00000000E+00  0.00000000E+00  0.00000000E+00
  0.00000000E+00  0.00000000E+00  0.00000000E+00
  0.00000000E+00  0.00000000E+00  0.00000000E+00
  0.00000000E+00  0.00000000E+00  0.00000000E+00
  0.00000000E+00  0.00000000E+00  0.00000000E+00
  0.00000000E+00  0.00000000E+00  0.00000000E+00
  0.00000000E+00  0.00000000E+00  0.00000000E+00
  0.00000000E+00  0.00000000E+00  0.00000000E+00
  0.00000000E+00  0.00000000E+00  0.00000000E+00
  0.00000000E+00  0.00000000E+00  0.00000000E+00
  0.00000000E+00  0.00000000E+00  0.00000000E+00
  0.00000000E+00  0.00000000E+00  0.00000000E+00
  0.00000000E+00  0.00000000E+00  0.00000000E+00
  0.00000000E+00  0.00000000E+00  0.00000000E+00
  0.00000000E+00  0.00000000E+00  0.00000000E+00
  0.00000000E+00  0.00000000E+00  0.00000000E+00
  0.00000000E+00  0.00000000E+00  0.00000000E+00
  0.00000000E+00  0.00000000E+00  0.00000000E+00
  0.00000000E+00  0.00000000E+00  0.00000000E+00
  0.00000000E+00  0.00000000E+00  0.00000000E+00
  0.00000000E+00  0.00000000E+00  0.00000000E+00
  0.00000000E+00  0.00000000E+00  0.00000000E+00
  0.00000000E+00  0.00000000E+00  0.00000000E+00
  0.00000000E+00  0.00000000E+00  0.00000000E+00
  0.00000000E+00  0.00000000E+00  0.00000000E+00
  0.00000000E+00  0.00000000E+00  0.00000000E+00
  0.00000000E+00  0.00000000E+00  0.00000000E+00
  0.00000000E+00  0.00000000E+00  0.00000000E+00
  0.00000000E+00  0.00000000E+00  0.00000000E+00
  0.00000000E+00  0.00000000E+00  0.00000000E+00
  0.00000000E+00  0.00000000E+00  0.00000000E+00
  0.00000000E+00  0.00000000E+00  0.00000000E+00
  0.00000000E+00  0.00000000E+00  0.00000000E+00
  0.00000000E+00  0.00000000E+00  0.00000000E+00
  0.00000000E+00  0.00000000E+00  0.00000000E+00
  0.00000000E+00  0.00000000E+00  0.00000000E+00
