 S  W 
 1.0000000000000000
    23.5214510194107831    0.0000000000000000    0.0000000000000000
     0.0000000000000000   23.5214510194107831    0.0000000000000000
     0.0000000000000000    0.0000000000000000    3.2022663305867187
 S   W  
  24  12
Cartesian
 12.5335886006723758  8.2911619231959950  0.0000000000000000
 10.7103042325409561 18.4027936612158776  0.0000000000000000
 10.6952627867902574  8.3695637578061657  1.6011331652933594
  9.3566246461111326 14.3790241706376367  1.6011331652933594
  9.3493829440963516  5.4833151176390365  1.6011331652933594
  9.1424268487731499  9.3566246461111326  0.0000000000000000
  8.3695637578061657 12.8261882326205257  0.0000000000000000
  8.2911619231959950 10.9878624187384126  1.6011331652933594
  7.5299999238039437 16.9877146246073103  1.6011331652933594
  6.5337363948034719  7.5299999238039437  0.0000000000000000
  5.4833151176390365 14.1720680753144332  0.0000000000000000
  5.1186573581949073 10.7103042325409561  1.6011331652933594
 18.0381359017717458  9.3493829440963516  0.0000000000000000
 16.9877146246073103 15.9914510956068376  0.0000000000000000
 18.4027936612158776 12.8111467868698270  1.6011331652933594
 14.3790241706376367 14.1648263732996522  0.0000000000000000
 12.8111467868698270  5.1186573581949073  0.0000000000000000
 12.8261882326205257 15.1518872616046174  1.6011331652933594
 14.1648263732996522  9.1424268487731499  1.6011331652933594
 14.1720680753144332 18.0381359017717458  1.6011331652933594
 15.1518872616046174 10.6952627867902574  0.0000000000000000
 10.9878624187384126 15.2302890962147899  0.0000000000000000
 15.2302890962147899 12.5335886006723758  1.6011331652933594
 15.9914510956068376  6.5337363948034719  1.6011331652933594
  6.7836380212579792  9.9492138112765076  0.0000000000000000
 15.1652538624354829 15.8180844038429438  1.6011331652933594
  7.7033666155678375 15.1652538624354829  0.0000000000000000
 16.9767655608643686 10.8409969153955323  1.6011331652933594
  8.3561971569753037  7.7033666155678375  1.6011331652933594
 15.8180844038429438  8.3561971569753037  0.0000000000000000
 13.5722372081342773  6.7836380212579792  1.6011331652933594
 10.8409969153955323  6.5446854585464145  0.0000000000000000
  9.9492138112765076 16.7378129981528048  1.6011331652933594
 12.6804541040152507 16.9767655608643686  0.0000000000000000
  6.5446854585464145 12.6804541040152507  1.6011331652933594
 16.7378129981528048 13.5722372081342773  0.0000000000000000
