 S  W 
 1.0000000000000000
    23.5214510194107831    0.0000000000000000    0.0000000000000000
     0.0000000000000000   23.5214510194107831    0.0000000000000000
     0.0000000000000000    0.0000000000000000    6.4045326611734374
 S   W  
  48  24
Direct
  0.5328577982000000  0.3524936415000001  0.0000000000000000
  0.6475063585000000  0.5328577982000000  0.7500000000000000
  0.5328577982000000  0.3524936415000001  0.5000000000000000
  0.4553419865000000  0.7823834357000001  0.5000000000000000
  0.4547025087000001  0.3558268472000000  0.7500000000000000
  0.3977911328000001  0.6113153546000001  0.7500000000000000
  0.3974832563000000  0.2331197643000000  0.7500000000000000
  0.3886846454000001  0.3977911328000001  0.5000000000000000
  0.3558268472000000  0.5452974912999999  0.5000000000000000
  0.3524936415000001  0.4671422018000002  0.7500000000000000
  0.3201333079999999  0.7222222222000000  0.7500000000000000
  0.2777777778000000  0.3201333079999999  0.5000000000000000
  0.2331197643000000  0.6025167437000001  0.5000000000000000
  0.2176165643000000  0.4553419865000000  0.7500000000000000
  0.7668802357000000  0.3974832563000000  0.5000000000000000
  0.7222222222000000  0.6798666920000001  0.5000000000000000
  0.7823834357000001  0.5446580135000000  0.7500000000000000
  0.6113153546000001  0.6022088672000000  0.5000000000000000
  0.5446580135000000  0.2176165643000000  0.5000000000000000
  0.5452974912999999  0.6441731528000000  0.7500000000000000
  0.6022088672000000  0.3886846454000001  0.7500000000000000
  0.6025167437000001  0.7668802357000000  0.7500000000000000
  0.6798666920000001  0.2777777778000000  0.7500000000000000
  0.6441731528000000  0.4547025087000001  0.5000000000000000
  0.4671422018000002  0.6475063585000000  0.5000000000000000
  0.6113153546000001  0.6022088672000000  0.0000000000000000
  0.2176165643000000  0.4553419865000000  0.2500000000000000
  0.7668802357000000  0.3974832563000000  0.0000000000000000
  0.7222222222000000  0.6798666920000001  0.0000000000000000
  0.7823834357000001  0.5446580135000000  0.2500000000000000
  0.3201333079999999  0.7222222222000000  0.2500000000000000
  0.5446580135000000  0.2176165643000000  0.0000000000000000
  0.5452974912999999  0.6441731528000000  0.2500000000000000
  0.6022088672000000  0.3886846454000001  0.2500000000000000
  0.6025167437000001  0.7668802357000000  0.2500000000000000
  0.2331197643000000  0.6025167437000001  0.0000000000000000
  0.6441731528000000  0.4547025087000001  0.0000000000000000
  0.6475063585000000  0.5328577982000000  0.2500000000000000
  0.3524936415000001  0.4671422018000002  0.2500000000000000
  0.3558268472000000  0.5452974912999999  0.0000000000000000
  0.3886846454000001  0.3977911328000001  0.0000000000000000
  0.3974832563000000  0.2331197643000000  0.2500000000000000
  0.3977911328000001  0.6113153546000001  0.2500000000000000
  0.6798666920000001  0.2777777778000000  0.2500000000000000
  0.4547025087000001  0.3558268472000000  0.2500000000000000
  0.4553419865000000  0.7823834357000001  0.0000000000000000
  0.4671422018000002  0.6475063585000000  0.0000000000000000
  0.2777777778000000  0.3201333079999999  0.0000000000000000
  0.4229846961000001  0.7115978085000000  0.7500000000000000
  0.2884021915000000  0.4229846961000001  0.5000000000000000
  0.6447414256000000  0.6724961139000000  0.7500000000000000
  0.3275038861000000  0.6447414256000000  0.5000000000000000
  0.7217567295000000  0.4608983054000000  0.7500000000000000
  0.3552585744000001  0.3275038861000000  0.7500000000000000
  0.5770153039000000  0.2884021915000000  0.7500000000000000
  0.4608983054000000  0.2782432705000000  0.5000000000000000
  0.5391016946000000  0.7217567295000000  0.5000000000000000
  0.6724961139000000  0.3552585744000001  0.5000000000000000
  0.7115978085000000  0.5770153039000000  0.0000000000000000
  0.2782432705000000  0.5391016946000000  0.2500000000000000
  0.5391016946000000  0.7217567295000000  0.0000000000000000
  0.4229846961000001  0.7115978085000000  0.2500000000000000
  0.4608983054000000  0.2782432705000000  0.0000000000000000
  0.5770153039000000  0.2884021915000000  0.2500000000000000
  0.6724961139000000  0.3552585744000001  0.0000000000000000
  0.3552585744000001  0.3275038861000000  0.2500000000000000
  0.7217567295000000  0.4608983054000000  0.2500000000000000
  0.3275038861000000  0.6447414256000000  0.0000000000000000
  0.6447414256000000  0.6724961139000000  0.2500000000000000
  0.2884021915000000  0.4229846961000001  0.0000000000000000
  0.2782432705000000  0.5391016946000000  0.7500000000000000
  0.7115978085000000  0.5770153039000000  0.5000000000000000
