 C 
 1.0000000000000000
    22.0000000000000000    0.0000000000000000    0.0000000000000000
     0.0000000000000000   22.0000000000000000    0.0000000000000000
     0.0000000000000000    0.0000000000000000    4.2599999999999998
 C  
  16
Cartesian
 12.5657740629978907 11.0000000000000000  0.0000000000000000
 12.1071694577518212 12.1071694577518212  3.5499999999999994
 12.1071694577518212 12.1071694577518212  2.1299999999999999
 11.0000000000000000 12.5657740629978907  1.4199999999999999
 11.0000000000000000 12.5657740629978907  0.0000000000000000
  9.8928305422481788 12.1071694577518212  3.5499999999999994
  9.8928305422481788 12.1071694577518212  2.1300000000000003
  9.4342259370021093 11.0000000000000000  1.4200000000000004
  9.4342259370021093 11.0000000000000000  0.0000000000000000
  9.8928305422481788  9.8928305422481788  3.5499999999999985
  9.8928305422481788  9.8928305422481788  2.1299999999999994
 11.0000000000000000  9.4342259370021093  1.4199999999999995
 11.0000000000000000  9.4342259370021093  0.0000000000000000
 12.1071694577518212  9.8928305422481788  3.5500000000000003
 12.1071694577518212  9.8928305422481788  2.1299999999999994
 12.5657740629978907 11.0000000000000000  1.4199999999999995
